Maximize 
c_e2e3 + c_e2e6 + c_e3e2 + c_e3e6 + c_e6e2 + c_e6e3 + c_e7e8 + c_e8e7 + c_e4e5 + c_e5e4 + c_e2e0 + c_e2e1 + c_e0e2 + c_e0e1 + c_e1e2 + c_e1e0 + c_e6e7 + c_e6e5 + c_e7e6 + c_e7e5 + c_e5e6 + c_e5e7 + c_e3e4 + c_e4e3 + c_e8e9 + c_e9e8 
Subject To 
x_e2e3 + x_e3e6 - x_e2e6 >= 0
- x_e2e3 - x_e3e6 + x_e2e6 >= - 1
x_e2e3 + x_e3e0 - x_e2e0 >= 0
- x_e2e3 - x_e3e0 + x_e2e0 >= - 1
x_e2e3 + x_e3e1 - x_e2e1 >= 0
- x_e2e3 - x_e3e1 + x_e2e1 >= - 1
x_e2e3 + x_e3e7 - x_e2e7 >= 0
- x_e2e3 - x_e3e7 + x_e2e7 >= - 1
x_e2e3 + x_e3e8 - x_e2e8 >= 0
- x_e2e3 - x_e3e8 + x_e2e8 >= - 1
x_e2e3 + x_e3e9 - x_e2e9 >= 0
- x_e2e3 - x_e3e9 + x_e2e9 >= - 1
x_e2e3 + x_e3e4 - x_e2e4 >= 0
- x_e2e3 - x_e3e4 + x_e2e4 >= - 1
x_e2e3 + x_e3e5 - x_e2e5 >= 0
- x_e2e3 - x_e3e5 + x_e2e5 >= - 1
x_e2e6 + x_e6e0 - x_e2e0 >= 0
- x_e2e6 - x_e6e0 + x_e2e0 >= - 1
x_e2e6 + x_e6e1 - x_e2e1 >= 0
- x_e2e6 - x_e6e1 + x_e2e1 >= - 1
x_e2e6 + x_e6e7 - x_e2e7 >= 0
- x_e2e6 - x_e6e7 + x_e2e7 >= - 1
x_e2e6 + x_e6e8 - x_e2e8 >= 0
- x_e2e6 - x_e6e8 + x_e2e8 >= - 1
x_e2e6 + x_e6e9 - x_e2e9 >= 0
- x_e2e6 - x_e6e9 + x_e2e9 >= - 1
x_e2e6 + x_e6e4 - x_e2e4 >= 0
- x_e2e6 - x_e6e4 + x_e2e4 >= - 1
x_e2e6 + x_e6e5 - x_e2e5 >= 0
- x_e2e6 - x_e6e5 + x_e2e5 >= - 1
x_e2e0 + x_e0e1 - x_e2e1 >= 0
- x_e2e0 - x_e0e1 + x_e2e1 >= - 1
x_e2e0 + x_e0e7 - x_e2e7 >= 0
- x_e2e0 - x_e0e7 + x_e2e7 >= - 1
x_e2e0 + x_e0e8 - x_e2e8 >= 0
- x_e2e0 - x_e0e8 + x_e2e8 >= - 1
x_e2e0 + x_e0e9 - x_e2e9 >= 0
- x_e2e0 - x_e0e9 + x_e2e9 >= - 1
x_e2e0 + x_e0e4 - x_e2e4 >= 0
- x_e2e0 - x_e0e4 + x_e2e4 >= - 1
x_e2e0 + x_e0e5 - x_e2e5 >= 0
- x_e2e0 - x_e0e5 + x_e2e5 >= - 1
x_e2e1 + x_e1e7 - x_e2e7 >= 0
- x_e2e1 - x_e1e7 + x_e2e7 >= - 1
x_e2e1 + x_e1e8 - x_e2e8 >= 0
- x_e2e1 - x_e1e8 + x_e2e8 >= - 1
x_e2e1 + x_e1e9 - x_e2e9 >= 0
- x_e2e1 - x_e1e9 + x_e2e9 >= - 1
x_e2e1 + x_e1e4 - x_e2e4 >= 0
- x_e2e1 - x_e1e4 + x_e2e4 >= - 1
x_e2e1 + x_e1e5 - x_e2e5 >= 0
- x_e2e1 - x_e1e5 + x_e2e5 >= - 1
x_e2e7 + x_e7e8 - x_e2e8 >= 0
- x_e2e7 - x_e7e8 + x_e2e8 >= - 1
x_e2e7 + x_e7e9 - x_e2e9 >= 0
- x_e2e7 - x_e7e9 + x_e2e9 >= - 1
x_e2e7 + x_e7e4 - x_e2e4 >= 0
- x_e2e7 - x_e7e4 + x_e2e4 >= - 1
x_e2e7 + x_e7e5 - x_e2e5 >= 0
- x_e2e7 - x_e7e5 + x_e2e5 >= - 1
x_e2e8 + x_e8e9 - x_e2e9 >= 0
- x_e2e8 - x_e8e9 + x_e2e9 >= - 1
x_e2e8 + x_e8e4 - x_e2e4 >= 0
- x_e2e8 - x_e8e4 + x_e2e4 >= - 1
x_e2e8 + x_e8e5 - x_e2e5 >= 0
- x_e2e8 - x_e8e5 + x_e2e5 >= - 1
x_e2e9 + x_e9e4 - x_e2e4 >= 0
- x_e2e9 - x_e9e4 + x_e2e4 >= - 1
x_e2e9 + x_e9e5 - x_e2e5 >= 0
- x_e2e9 - x_e9e5 + x_e2e5 >= - 1
x_e2e4 + x_e4e5 - x_e2e5 >= 0
- x_e2e4 - x_e4e5 + x_e2e5 >= - 1
x_e3e6 + x_e6e0 - x_e3e0 >= 0
- x_e3e6 - x_e6e0 + x_e3e0 >= - 1
x_e3e6 + x_e6e1 - x_e3e1 >= 0
- x_e3e6 - x_e6e1 + x_e3e1 >= - 1
x_e3e6 + x_e6e7 - x_e3e7 >= 0
- x_e3e6 - x_e6e7 + x_e3e7 >= - 1
x_e3e6 + x_e6e8 - x_e3e8 >= 0
- x_e3e6 - x_e6e8 + x_e3e8 >= - 1
x_e3e6 + x_e6e9 - x_e3e9 >= 0
- x_e3e6 - x_e6e9 + x_e3e9 >= - 1
x_e3e6 + x_e6e4 - x_e3e4 >= 0
- x_e3e6 - x_e6e4 + x_e3e4 >= - 1
x_e3e6 + x_e6e5 - x_e3e5 >= 0
- x_e3e6 - x_e6e5 + x_e3e5 >= - 1
x_e3e0 + x_e0e1 - x_e3e1 >= 0
- x_e3e0 - x_e0e1 + x_e3e1 >= - 1
x_e3e0 + x_e0e7 - x_e3e7 >= 0
- x_e3e0 - x_e0e7 + x_e3e7 >= - 1
x_e3e0 + x_e0e8 - x_e3e8 >= 0
- x_e3e0 - x_e0e8 + x_e3e8 >= - 1
x_e3e0 + x_e0e9 - x_e3e9 >= 0
- x_e3e0 - x_e0e9 + x_e3e9 >= - 1
x_e3e0 + x_e0e4 - x_e3e4 >= 0
- x_e3e0 - x_e0e4 + x_e3e4 >= - 1
x_e3e0 + x_e0e5 - x_e3e5 >= 0
- x_e3e0 - x_e0e5 + x_e3e5 >= - 1
x_e3e1 + x_e1e7 - x_e3e7 >= 0
- x_e3e1 - x_e1e7 + x_e3e7 >= - 1
x_e3e1 + x_e1e8 - x_e3e8 >= 0
- x_e3e1 - x_e1e8 + x_e3e8 >= - 1
x_e3e1 + x_e1e9 - x_e3e9 >= 0
- x_e3e1 - x_e1e9 + x_e3e9 >= - 1
x_e3e1 + x_e1e4 - x_e3e4 >= 0
- x_e3e1 - x_e1e4 + x_e3e4 >= - 1
x_e3e1 + x_e1e5 - x_e3e5 >= 0
- x_e3e1 - x_e1e5 + x_e3e5 >= - 1
x_e3e7 + x_e7e8 - x_e3e8 >= 0
- x_e3e7 - x_e7e8 + x_e3e8 >= - 1
x_e3e7 + x_e7e9 - x_e3e9 >= 0
- x_e3e7 - x_e7e9 + x_e3e9 >= - 1
x_e3e7 + x_e7e4 - x_e3e4 >= 0
- x_e3e7 - x_e7e4 + x_e3e4 >= - 1
x_e3e7 + x_e7e5 - x_e3e5 >= 0
- x_e3e7 - x_e7e5 + x_e3e5 >= - 1
x_e3e8 + x_e8e9 - x_e3e9 >= 0
- x_e3e8 - x_e8e9 + x_e3e9 >= - 1
x_e3e8 + x_e8e4 - x_e3e4 >= 0
- x_e3e8 - x_e8e4 + x_e3e4 >= - 1
x_e3e8 + x_e8e5 - x_e3e5 >= 0
- x_e3e8 - x_e8e5 + x_e3e5 >= - 1
x_e3e9 + x_e9e4 - x_e3e4 >= 0
- x_e3e9 - x_e9e4 + x_e3e4 >= - 1
x_e3e9 + x_e9e5 - x_e3e5 >= 0
- x_e3e9 - x_e9e5 + x_e3e5 >= - 1
x_e3e4 + x_e4e5 - x_e3e5 >= 0
- x_e3e4 - x_e4e5 + x_e3e5 >= - 1
x_e6e0 + x_e0e1 - x_e6e1 >= 0
- x_e6e0 - x_e0e1 + x_e6e1 >= - 1
x_e6e0 + x_e0e7 - x_e6e7 >= 0
- x_e6e0 - x_e0e7 + x_e6e7 >= - 1
x_e6e0 + x_e0e8 - x_e6e8 >= 0
- x_e6e0 - x_e0e8 + x_e6e8 >= - 1
x_e6e0 + x_e0e9 - x_e6e9 >= 0
- x_e6e0 - x_e0e9 + x_e6e9 >= - 1
x_e6e0 + x_e0e4 - x_e6e4 >= 0
- x_e6e0 - x_e0e4 + x_e6e4 >= - 1
x_e6e0 + x_e0e5 - x_e6e5 >= 0
- x_e6e0 - x_e0e5 + x_e6e5 >= - 1
x_e6e1 + x_e1e7 - x_e6e7 >= 0
- x_e6e1 - x_e1e7 + x_e6e7 >= - 1
x_e6e1 + x_e1e8 - x_e6e8 >= 0
- x_e6e1 - x_e1e8 + x_e6e8 >= - 1
x_e6e1 + x_e1e9 - x_e6e9 >= 0
- x_e6e1 - x_e1e9 + x_e6e9 >= - 1
x_e6e1 + x_e1e4 - x_e6e4 >= 0
- x_e6e1 - x_e1e4 + x_e6e4 >= - 1
x_e6e1 + x_e1e5 - x_e6e5 >= 0
- x_e6e1 - x_e1e5 + x_e6e5 >= - 1
x_e6e7 + x_e7e8 - x_e6e8 >= 0
- x_e6e7 - x_e7e8 + x_e6e8 >= - 1
x_e6e7 + x_e7e9 - x_e6e9 >= 0
- x_e6e7 - x_e7e9 + x_e6e9 >= - 1
x_e6e7 + x_e7e4 - x_e6e4 >= 0
- x_e6e7 - x_e7e4 + x_e6e4 >= - 1
x_e6e7 + x_e7e5 - x_e6e5 >= 0
- x_e6e7 - x_e7e5 + x_e6e5 >= - 1
x_e6e8 + x_e8e9 - x_e6e9 >= 0
- x_e6e8 - x_e8e9 + x_e6e9 >= - 1
x_e6e8 + x_e8e4 - x_e6e4 >= 0
- x_e6e8 - x_e8e4 + x_e6e4 >= - 1
x_e6e8 + x_e8e5 - x_e6e5 >= 0
- x_e6e8 - x_e8e5 + x_e6e5 >= - 1
x_e6e9 + x_e9e4 - x_e6e4 >= 0
- x_e6e9 - x_e9e4 + x_e6e4 >= - 1
x_e6e9 + x_e9e5 - x_e6e5 >= 0
- x_e6e9 - x_e9e5 + x_e6e5 >= - 1
x_e6e4 + x_e4e5 - x_e6e5 >= 0
- x_e6e4 - x_e4e5 + x_e6e5 >= - 1
x_e0e1 + x_e1e7 - x_e0e7 >= 0
- x_e0e1 - x_e1e7 + x_e0e7 >= - 1
x_e0e1 + x_e1e8 - x_e0e8 >= 0
- x_e0e1 - x_e1e8 + x_e0e8 >= - 1
x_e0e1 + x_e1e9 - x_e0e9 >= 0
- x_e0e1 - x_e1e9 + x_e0e9 >= - 1
x_e0e1 + x_e1e4 - x_e0e4 >= 0
- x_e0e1 - x_e1e4 + x_e0e4 >= - 1
x_e0e1 + x_e1e5 - x_e0e5 >= 0
- x_e0e1 - x_e1e5 + x_e0e5 >= - 1
x_e0e7 + x_e7e8 - x_e0e8 >= 0
- x_e0e7 - x_e7e8 + x_e0e8 >= - 1
x_e0e7 + x_e7e9 - x_e0e9 >= 0
- x_e0e7 - x_e7e9 + x_e0e9 >= - 1
x_e0e7 + x_e7e4 - x_e0e4 >= 0
- x_e0e7 - x_e7e4 + x_e0e4 >= - 1
x_e0e7 + x_e7e5 - x_e0e5 >= 0
- x_e0e7 - x_e7e5 + x_e0e5 >= - 1
x_e0e8 + x_e8e9 - x_e0e9 >= 0
- x_e0e8 - x_e8e9 + x_e0e9 >= - 1
x_e0e8 + x_e8e4 - x_e0e4 >= 0
- x_e0e8 - x_e8e4 + x_e0e4 >= - 1
x_e0e8 + x_e8e5 - x_e0e5 >= 0
- x_e0e8 - x_e8e5 + x_e0e5 >= - 1
x_e0e9 + x_e9e4 - x_e0e4 >= 0
- x_e0e9 - x_e9e4 + x_e0e4 >= - 1
x_e0e9 + x_e9e5 - x_e0e5 >= 0
- x_e0e9 - x_e9e5 + x_e0e5 >= - 1
x_e0e4 + x_e4e5 - x_e0e5 >= 0
- x_e0e4 - x_e4e5 + x_e0e5 >= - 1
x_e1e7 + x_e7e8 - x_e1e8 >= 0
- x_e1e7 - x_e7e8 + x_e1e8 >= - 1
x_e1e7 + x_e7e9 - x_e1e9 >= 0
- x_e1e7 - x_e7e9 + x_e1e9 >= - 1
x_e1e7 + x_e7e4 - x_e1e4 >= 0
- x_e1e7 - x_e7e4 + x_e1e4 >= - 1
x_e1e7 + x_e7e5 - x_e1e5 >= 0
- x_e1e7 - x_e7e5 + x_e1e5 >= - 1
x_e1e8 + x_e8e9 - x_e1e9 >= 0
- x_e1e8 - x_e8e9 + x_e1e9 >= - 1
x_e1e8 + x_e8e4 - x_e1e4 >= 0
- x_e1e8 - x_e8e4 + x_e1e4 >= - 1
x_e1e8 + x_e8e5 - x_e1e5 >= 0
- x_e1e8 - x_e8e5 + x_e1e5 >= - 1
x_e1e9 + x_e9e4 - x_e1e4 >= 0
- x_e1e9 - x_e9e4 + x_e1e4 >= - 1
x_e1e9 + x_e9e5 - x_e1e5 >= 0
- x_e1e9 - x_e9e5 + x_e1e5 >= - 1
x_e1e4 + x_e4e5 - x_e1e5 >= 0
- x_e1e4 - x_e4e5 + x_e1e5 >= - 1
x_e7e8 + x_e8e9 - x_e7e9 >= 0
- x_e7e8 - x_e8e9 + x_e7e9 >= - 1
x_e7e8 + x_e8e4 - x_e7e4 >= 0
- x_e7e8 - x_e8e4 + x_e7e4 >= - 1
x_e7e8 + x_e8e5 - x_e7e5 >= 0
- x_e7e8 - x_e8e5 + x_e7e5 >= - 1
x_e7e9 + x_e9e4 - x_e7e4 >= 0
- x_e7e9 - x_e9e4 + x_e7e4 >= - 1
x_e7e9 + x_e9e5 - x_e7e5 >= 0
- x_e7e9 - x_e9e5 + x_e7e5 >= - 1
x_e7e4 + x_e4e5 - x_e7e5 >= 0
- x_e7e4 - x_e4e5 + x_e7e5 >= - 1
x_e8e9 + x_e9e4 - x_e8e4 >= 0
- x_e8e9 - x_e9e4 + x_e8e4 >= - 1
x_e8e9 + x_e9e5 - x_e8e5 >= 0
- x_e8e9 - x_e9e5 + x_e8e5 >= - 1
x_e8e4 + x_e4e5 - x_e8e5 >= 0
- x_e8e4 - x_e4e5 + x_e8e5 >= - 1
x_e9e4 + x_e4e5 - x_e9e5 >= 0
- x_e9e4 - x_e4e5 + x_e9e5 >= - 1
y_n0n1 + y_n1n2 - y_n0n2 >= 0
- y_n0n1 - y_n1n2 + y_n0n2 >= - 1
y_n0n1 + y_n1n3 - y_n0n3 >= 0
- y_n0n1 - y_n1n3 + y_n0n3 >= - 1
y_n0n1 + y_n1n4 - y_n0n4 >= 0
- y_n0n1 - y_n1n4 + y_n0n4 >= - 1
y_n0n1 + y_n1n5 - y_n0n5 >= 0
- y_n0n1 - y_n1n5 + y_n0n5 >= - 1
y_n0n1 + y_n1n6 - y_n0n6 >= 0
- y_n0n1 - y_n1n6 + y_n0n6 >= - 1
y_n0n1 + y_n1n7 - y_n0n7 >= 0
- y_n0n1 - y_n1n7 + y_n0n7 >= - 1
y_n0n1 + y_n1n8 - y_n0n8 >= 0
- y_n0n1 - y_n1n8 + y_n0n8 >= - 1
y_n0n1 + y_n1n9 - y_n0n9 >= 0
- y_n0n1 - y_n1n9 + y_n0n9 >= - 1
y_n0n2 + y_n2n3 - y_n0n3 >= 0
- y_n0n2 - y_n2n3 + y_n0n3 >= - 1
y_n0n2 + y_n2n4 - y_n0n4 >= 0
- y_n0n2 - y_n2n4 + y_n0n4 >= - 1
y_n0n2 + y_n2n5 - y_n0n5 >= 0
- y_n0n2 - y_n2n5 + y_n0n5 >= - 1
y_n0n2 + y_n2n6 - y_n0n6 >= 0
- y_n0n2 - y_n2n6 + y_n0n6 >= - 1
y_n0n2 + y_n2n7 - y_n0n7 >= 0
- y_n0n2 - y_n2n7 + y_n0n7 >= - 1
y_n0n2 + y_n2n8 - y_n0n8 >= 0
- y_n0n2 - y_n2n8 + y_n0n8 >= - 1
y_n0n2 + y_n2n9 - y_n0n9 >= 0
- y_n0n2 - y_n2n9 + y_n0n9 >= - 1
y_n0n3 + y_n3n4 - y_n0n4 >= 0
- y_n0n3 - y_n3n4 + y_n0n4 >= - 1
y_n0n3 + y_n3n5 - y_n0n5 >= 0
- y_n0n3 - y_n3n5 + y_n0n5 >= - 1
y_n0n3 + y_n3n6 - y_n0n6 >= 0
- y_n0n3 - y_n3n6 + y_n0n6 >= - 1
y_n0n3 + y_n3n7 - y_n0n7 >= 0
- y_n0n3 - y_n3n7 + y_n0n7 >= - 1
y_n0n3 + y_n3n8 - y_n0n8 >= 0
- y_n0n3 - y_n3n8 + y_n0n8 >= - 1
y_n0n3 + y_n3n9 - y_n0n9 >= 0
- y_n0n3 - y_n3n9 + y_n0n9 >= - 1
y_n0n4 + y_n4n5 - y_n0n5 >= 0
- y_n0n4 - y_n4n5 + y_n0n5 >= - 1
y_n0n4 + y_n4n6 - y_n0n6 >= 0
- y_n0n4 - y_n4n6 + y_n0n6 >= - 1
y_n0n4 + y_n4n7 - y_n0n7 >= 0
- y_n0n4 - y_n4n7 + y_n0n7 >= - 1
y_n0n4 + y_n4n8 - y_n0n8 >= 0
- y_n0n4 - y_n4n8 + y_n0n8 >= - 1
y_n0n4 + y_n4n9 - y_n0n9 >= 0
- y_n0n4 - y_n4n9 + y_n0n9 >= - 1
y_n0n5 + y_n5n6 - y_n0n6 >= 0
- y_n0n5 - y_n5n6 + y_n0n6 >= - 1
y_n0n5 + y_n5n7 - y_n0n7 >= 0
- y_n0n5 - y_n5n7 + y_n0n7 >= - 1
y_n0n5 + y_n5n8 - y_n0n8 >= 0
- y_n0n5 - y_n5n8 + y_n0n8 >= - 1
y_n0n5 + y_n5n9 - y_n0n9 >= 0
- y_n0n5 - y_n5n9 + y_n0n9 >= - 1
y_n0n6 + y_n6n7 - y_n0n7 >= 0
- y_n0n6 - y_n6n7 + y_n0n7 >= - 1
y_n0n6 + y_n6n8 - y_n0n8 >= 0
- y_n0n6 - y_n6n8 + y_n0n8 >= - 1
y_n0n6 + y_n6n9 - y_n0n9 >= 0
- y_n0n6 - y_n6n9 + y_n0n9 >= - 1
y_n0n7 + y_n7n8 - y_n0n8 >= 0
- y_n0n7 - y_n7n8 + y_n0n8 >= - 1
y_n0n7 + y_n7n9 - y_n0n9 >= 0
- y_n0n7 - y_n7n9 + y_n0n9 >= - 1
y_n0n8 + y_n8n9 - y_n0n9 >= 0
- y_n0n8 - y_n8n9 + y_n0n9 >= - 1
y_n1n2 + y_n2n3 - y_n1n3 >= 0
- y_n1n2 - y_n2n3 + y_n1n3 >= - 1
y_n1n2 + y_n2n4 - y_n1n4 >= 0
- y_n1n2 - y_n2n4 + y_n1n4 >= - 1
y_n1n2 + y_n2n5 - y_n1n5 >= 0
- y_n1n2 - y_n2n5 + y_n1n5 >= - 1
y_n1n2 + y_n2n6 - y_n1n6 >= 0
- y_n1n2 - y_n2n6 + y_n1n6 >= - 1
y_n1n2 + y_n2n7 - y_n1n7 >= 0
- y_n1n2 - y_n2n7 + y_n1n7 >= - 1
y_n1n2 + y_n2n8 - y_n1n8 >= 0
- y_n1n2 - y_n2n8 + y_n1n8 >= - 1
y_n1n2 + y_n2n9 - y_n1n9 >= 0
- y_n1n2 - y_n2n9 + y_n1n9 >= - 1
y_n1n3 + y_n3n4 - y_n1n4 >= 0
- y_n1n3 - y_n3n4 + y_n1n4 >= - 1
y_n1n3 + y_n3n5 - y_n1n5 >= 0
- y_n1n3 - y_n3n5 + y_n1n5 >= - 1
y_n1n3 + y_n3n6 - y_n1n6 >= 0
- y_n1n3 - y_n3n6 + y_n1n6 >= - 1
y_n1n3 + y_n3n7 - y_n1n7 >= 0
- y_n1n3 - y_n3n7 + y_n1n7 >= - 1
y_n1n3 + y_n3n8 - y_n1n8 >= 0
- y_n1n3 - y_n3n8 + y_n1n8 >= - 1
y_n1n3 + y_n3n9 - y_n1n9 >= 0
- y_n1n3 - y_n3n9 + y_n1n9 >= - 1
y_n1n4 + y_n4n5 - y_n1n5 >= 0
- y_n1n4 - y_n4n5 + y_n1n5 >= - 1
y_n1n4 + y_n4n6 - y_n1n6 >= 0
- y_n1n4 - y_n4n6 + y_n1n6 >= - 1
y_n1n4 + y_n4n7 - y_n1n7 >= 0
- y_n1n4 - y_n4n7 + y_n1n7 >= - 1
y_n1n4 + y_n4n8 - y_n1n8 >= 0
- y_n1n4 - y_n4n8 + y_n1n8 >= - 1
y_n1n4 + y_n4n9 - y_n1n9 >= 0
- y_n1n4 - y_n4n9 + y_n1n9 >= - 1
y_n1n5 + y_n5n6 - y_n1n6 >= 0
- y_n1n5 - y_n5n6 + y_n1n6 >= - 1
y_n1n5 + y_n5n7 - y_n1n7 >= 0
- y_n1n5 - y_n5n7 + y_n1n7 >= - 1
y_n1n5 + y_n5n8 - y_n1n8 >= 0
- y_n1n5 - y_n5n8 + y_n1n8 >= - 1
y_n1n5 + y_n5n9 - y_n1n9 >= 0
- y_n1n5 - y_n5n9 + y_n1n9 >= - 1
y_n1n6 + y_n6n7 - y_n1n7 >= 0
- y_n1n6 - y_n6n7 + y_n1n7 >= - 1
y_n1n6 + y_n6n8 - y_n1n8 >= 0
- y_n1n6 - y_n6n8 + y_n1n8 >= - 1
y_n1n6 + y_n6n9 - y_n1n9 >= 0
- y_n1n6 - y_n6n9 + y_n1n9 >= - 1
y_n1n7 + y_n7n8 - y_n1n8 >= 0
- y_n1n7 - y_n7n8 + y_n1n8 >= - 1
y_n1n7 + y_n7n9 - y_n1n9 >= 0
- y_n1n7 - y_n7n9 + y_n1n9 >= - 1
y_n1n8 + y_n8n9 - y_n1n9 >= 0
- y_n1n8 - y_n8n9 + y_n1n9 >= - 1
y_n2n3 + y_n3n4 - y_n2n4 >= 0
- y_n2n3 - y_n3n4 + y_n2n4 >= - 1
y_n2n3 + y_n3n5 - y_n2n5 >= 0
- y_n2n3 - y_n3n5 + y_n2n5 >= - 1
y_n2n3 + y_n3n6 - y_n2n6 >= 0
- y_n2n3 - y_n3n6 + y_n2n6 >= - 1
y_n2n3 + y_n3n7 - y_n2n7 >= 0
- y_n2n3 - y_n3n7 + y_n2n7 >= - 1
y_n2n3 + y_n3n8 - y_n2n8 >= 0
- y_n2n3 - y_n3n8 + y_n2n8 >= - 1
y_n2n3 + y_n3n9 - y_n2n9 >= 0
- y_n2n3 - y_n3n9 + y_n2n9 >= - 1
y_n2n4 + y_n4n5 - y_n2n5 >= 0
- y_n2n4 - y_n4n5 + y_n2n5 >= - 1
y_n2n4 + y_n4n6 - y_n2n6 >= 0
- y_n2n4 - y_n4n6 + y_n2n6 >= - 1
y_n2n4 + y_n4n7 - y_n2n7 >= 0
- y_n2n4 - y_n4n7 + y_n2n7 >= - 1
y_n2n4 + y_n4n8 - y_n2n8 >= 0
- y_n2n4 - y_n4n8 + y_n2n8 >= - 1
y_n2n4 + y_n4n9 - y_n2n9 >= 0
- y_n2n4 - y_n4n9 + y_n2n9 >= - 1
y_n2n5 + y_n5n6 - y_n2n6 >= 0
- y_n2n5 - y_n5n6 + y_n2n6 >= - 1
y_n2n5 + y_n5n7 - y_n2n7 >= 0
- y_n2n5 - y_n5n7 + y_n2n7 >= - 1
y_n2n5 + y_n5n8 - y_n2n8 >= 0
- y_n2n5 - y_n5n8 + y_n2n8 >= - 1
y_n2n5 + y_n5n9 - y_n2n9 >= 0
- y_n2n5 - y_n5n9 + y_n2n9 >= - 1
y_n2n6 + y_n6n7 - y_n2n7 >= 0
- y_n2n6 - y_n6n7 + y_n2n7 >= - 1
y_n2n6 + y_n6n8 - y_n2n8 >= 0
- y_n2n6 - y_n6n8 + y_n2n8 >= - 1
y_n2n6 + y_n6n9 - y_n2n9 >= 0
- y_n2n6 - y_n6n9 + y_n2n9 >= - 1
y_n2n7 + y_n7n8 - y_n2n8 >= 0
- y_n2n7 - y_n7n8 + y_n2n8 >= - 1
y_n2n7 + y_n7n9 - y_n2n9 >= 0
- y_n2n7 - y_n7n9 + y_n2n9 >= - 1
y_n2n8 + y_n8n9 - y_n2n9 >= 0
- y_n2n8 - y_n8n9 + y_n2n9 >= - 1
y_n3n4 + y_n4n5 - y_n3n5 >= 0
- y_n3n4 - y_n4n5 + y_n3n5 >= - 1
y_n3n4 + y_n4n6 - y_n3n6 >= 0
- y_n3n4 - y_n4n6 + y_n3n6 >= - 1
y_n3n4 + y_n4n7 - y_n3n7 >= 0
- y_n3n4 - y_n4n7 + y_n3n7 >= - 1
y_n3n4 + y_n4n8 - y_n3n8 >= 0
- y_n3n4 - y_n4n8 + y_n3n8 >= - 1
y_n3n4 + y_n4n9 - y_n3n9 >= 0
- y_n3n4 - y_n4n9 + y_n3n9 >= - 1
y_n3n5 + y_n5n6 - y_n3n6 >= 0
- y_n3n5 - y_n5n6 + y_n3n6 >= - 1
y_n3n5 + y_n5n7 - y_n3n7 >= 0
- y_n3n5 - y_n5n7 + y_n3n7 >= - 1
y_n3n5 + y_n5n8 - y_n3n8 >= 0
- y_n3n5 - y_n5n8 + y_n3n8 >= - 1
y_n3n5 + y_n5n9 - y_n3n9 >= 0
- y_n3n5 - y_n5n9 + y_n3n9 >= - 1
y_n3n6 + y_n6n7 - y_n3n7 >= 0
- y_n3n6 - y_n6n7 + y_n3n7 >= - 1
y_n3n6 + y_n6n8 - y_n3n8 >= 0
- y_n3n6 - y_n6n8 + y_n3n8 >= - 1
y_n3n6 + y_n6n9 - y_n3n9 >= 0
- y_n3n6 - y_n6n9 + y_n3n9 >= - 1
y_n3n7 + y_n7n8 - y_n3n8 >= 0
- y_n3n7 - y_n7n8 + y_n3n8 >= - 1
y_n3n7 + y_n7n9 - y_n3n9 >= 0
- y_n3n7 - y_n7n9 + y_n3n9 >= - 1
y_n3n8 + y_n8n9 - y_n3n9 >= 0
- y_n3n8 - y_n8n9 + y_n3n9 >= - 1
y_n4n5 + y_n5n6 - y_n4n6 >= 0
- y_n4n5 - y_n5n6 + y_n4n6 >= - 1
y_n4n5 + y_n5n7 - y_n4n7 >= 0
- y_n4n5 - y_n5n7 + y_n4n7 >= - 1
y_n4n5 + y_n5n8 - y_n4n8 >= 0
- y_n4n5 - y_n5n8 + y_n4n8 >= - 1
y_n4n5 + y_n5n9 - y_n4n9 >= 0
- y_n4n5 - y_n5n9 + y_n4n9 >= - 1
y_n4n6 + y_n6n7 - y_n4n7 >= 0
- y_n4n6 - y_n6n7 + y_n4n7 >= - 1
y_n4n6 + y_n6n8 - y_n4n8 >= 0
- y_n4n6 - y_n6n8 + y_n4n8 >= - 1
y_n4n6 + y_n6n9 - y_n4n9 >= 0
- y_n4n6 - y_n6n9 + y_n4n9 >= - 1
y_n4n7 + y_n7n8 - y_n4n8 >= 0
- y_n4n7 - y_n7n8 + y_n4n8 >= - 1
y_n4n7 + y_n7n9 - y_n4n9 >= 0
- y_n4n7 - y_n7n9 + y_n4n9 >= - 1
y_n4n8 + y_n8n9 - y_n4n9 >= 0
- y_n4n8 - y_n8n9 + y_n4n9 >= - 1
y_n5n6 + y_n6n7 - y_n5n7 >= 0
- y_n5n6 - y_n6n7 + y_n5n7 >= - 1
y_n5n6 + y_n6n8 - y_n5n8 >= 0
- y_n5n6 - y_n6n8 + y_n5n8 >= - 1
y_n5n6 + y_n6n9 - y_n5n9 >= 0
- y_n5n6 - y_n6n9 + y_n5n9 >= - 1
y_n5n7 + y_n7n8 - y_n5n8 >= 0
- y_n5n7 - y_n7n8 + y_n5n8 >= - 1
y_n5n7 + y_n7n9 - y_n5n9 >= 0
- y_n5n7 - y_n7n9 + y_n5n9 >= - 1
y_n5n8 + y_n8n9 - y_n5n9 >= 0
- y_n5n8 - y_n8n9 + y_n5n9 >= - 1
y_n6n7 + y_n7n8 - y_n6n8 >= 0
- y_n6n7 - y_n7n8 + y_n6n8 >= - 1
y_n6n7 + y_n7n9 - y_n6n9 >= 0
- y_n6n7 - y_n7n9 + y_n6n9 >= - 1
y_n6n8 + y_n8n9 - y_n6n9 >= 0
- y_n6n8 - y_n8n9 + y_n6n9 >= - 1
y_n7n8 + y_n8n9 - y_n7n9 >= 0
- y_n7n8 - y_n8n9 + y_n7n9 >= - 1
pos_e2 + x_e2e3 + x_e2e6 + x_e2e0 + x_e2e1 + x_e2e7 + x_e2e8 + x_e2e9 + x_e2e4 + x_e2e5 = 9
pos_e3 - x_e2e3 + x_e3e6 + x_e3e0 + x_e3e1 + x_e3e7 + x_e3e8 + x_e3e9 + x_e3e4 + x_e3e5 = 8
pos_e6 - x_e2e6 - x_e3e6 + x_e6e0 + x_e6e1 + x_e6e7 + x_e6e8 + x_e6e9 + x_e6e4 + x_e6e5 = 7
pos_e0 - x_e2e0 - x_e3e0 - x_e6e0 + x_e0e1 + x_e0e7 + x_e0e8 + x_e0e9 + x_e0e4 + x_e0e5 = 6
pos_e1 - x_e2e1 - x_e3e1 - x_e6e1 - x_e0e1 + x_e1e7 + x_e1e8 + x_e1e9 + x_e1e4 + x_e1e5 = 5
pos_e7 - x_e2e7 - x_e3e7 - x_e6e7 - x_e0e7 - x_e1e7 + x_e7e8 + x_e7e9 + x_e7e4 + x_e7e5 = 4
pos_e8 - x_e2e8 - x_e3e8 - x_e6e8 - x_e0e8 - x_e1e8 - x_e7e8 + x_e8e9 + x_e8e4 + x_e8e5 = 3
pos_e9 - x_e2e9 - x_e3e9 - x_e6e9 - x_e0e9 - x_e1e9 - x_e7e9 - x_e8e9 + x_e9e4 + x_e9e5 = 2
pos_e4 - x_e2e4 - x_e3e4 - x_e6e4 - x_e0e4 - x_e1e4 - x_e7e4 - x_e8e4 - x_e9e4 + x_e4e5 = 1
pos_e5 - x_e2e5 - x_e3e5 - x_e6e5 - x_e0e5 - x_e1e5 - x_e7e5 - x_e8e5 - x_e9e5 - x_e4e5 = 0
c_e2e3 - z_e2e3 <= 0
c_e2e3 - y_n6n8 <= 0
c_e2e3 - z_e2e3 - y_n6n8 >= -1
pos_e3 - pos_e2 + 50 z_e2e3 <= 51.01
pos_e3 - pos_e2 - 50 z_e2e3 >= -49.01
pos_e2 <= 10
pos_e3 <= 10
c_e2e6 - z_e2e6 <= 0
c_e2e6 - y_n6n7 <= 0
c_e2e6 - z_e2e6 - y_n6n7 >= -1
pos_e6 - pos_e2 + 50 z_e2e6 <= 51.01
pos_e6 - pos_e2 - 50 z_e2e6 >= -49.01
pos_e2 <= 10
pos_e6 <= 10
pos_e2 - pos_e3 + 50 z_e3e2 <= 51.01
pos_e2 - pos_e3 - 50 z_e3e2 >= -49.01
pos_e3 <= 10
pos_e2 <= 10
pos_e6 - pos_e3 + 50 z_e3e6 <= 51.01
pos_e6 - pos_e3 - 50 z_e3e6 >= -49.01
pos_e3 <= 10
pos_e6 <= 10
pos_e2 - pos_e6 + 50 z_e6e2 <= 51.01
pos_e2 - pos_e6 - 50 z_e6e2 >= -49.01
pos_e6 <= 10
pos_e2 <= 10
c_e6e3 - z_e6e3 <= 0
c_e6e3 - y_n7n8 <= 0
c_e6e3 - z_e6e3 - y_n7n8 >= -1
pos_e3 - pos_e6 + 50 z_e6e3 <= 51.01
pos_e3 - pos_e6 - 50 z_e6e3 >= -49.01
pos_e6 <= 10
pos_e3 <= 10
c_e7e8 - z_e7e8 <= 0
c_e7e8 - y_n7n9 <= 0
c_e7e8 - z_e7e8 - y_n7n9 >= -1
pos_e8 - pos_e7 + 50 z_e7e8 <= 51.01
pos_e8 - pos_e7 - 50 z_e7e8 >= -49.01
pos_e7 <= 10
pos_e8 <= 10
pos_e7 - pos_e8 + 50 z_e8e7 <= 51.01
pos_e7 - pos_e8 - 50 z_e8e7 >= -49.01
pos_e8 <= 10
pos_e7 <= 10
pos_e5 - pos_e4 + 50 z_e4e5 <= 51.01
pos_e5 - pos_e4 - 50 z_e4e5 >= -49.01
pos_e4 <= 10
pos_e5 <= 10
c_e5e4 - z_e5e4 <= 0
c_e5e4 - y_n7n8 <= 0
c_e5e4 - z_e5e4 - y_n7n8 >= -1
pos_e4 - pos_e5 + 50 z_e5e4 <= 51.01
pos_e4 - pos_e5 - 50 z_e5e4 >= -49.01
pos_e5 <= 10
pos_e4 <= 10
c_e2e0 - z_e2e0 <= 0
c_e2e0 - y_n0n1 <= 0
c_e2e0 - z_e2e0 - y_n0n1 >= -1
pos_e0 - pos_e2 + 50 z_e2e0 <= 51.01
pos_e0 - pos_e2 - 50 z_e2e0 >= -49.01
pos_e2 <= 10
pos_e0 <= 10
c_e2e1 - z_e2e1 <= 0
c_e2e1 - y_n0n2 <= 0
c_e2e1 - z_e2e1 - y_n0n2 >= -1
pos_e1 - pos_e2 + 50 z_e2e1 <= 51.01
pos_e1 - pos_e2 - 50 z_e2e1 >= -49.01
pos_e2 <= 10
pos_e1 <= 10
pos_e2 - pos_e0 + 50 z_e0e2 <= 51.01
pos_e2 - pos_e0 - 50 z_e0e2 >= -49.01
pos_e0 <= 10
pos_e2 <= 10
c_e0e1 - z_e0e1 <= 0
c_e0e1 - y_n1n2 <= 0
c_e0e1 - z_e0e1 - y_n1n2 >= -1
pos_e1 - pos_e0 + 50 z_e0e1 <= 51.01
pos_e1 - pos_e0 - 50 z_e0e1 >= -49.01
pos_e0 <= 10
pos_e1 <= 10
pos_e2 - pos_e1 + 50 z_e1e2 <= 51.01
pos_e2 - pos_e1 - 50 z_e1e2 >= -49.01
pos_e1 <= 10
pos_e2 <= 10
pos_e0 - pos_e1 + 50 z_e1e0 <= 51.01
pos_e0 - pos_e1 - 50 z_e1e0 >= -49.01
pos_e1 <= 10
pos_e0 <= 10
c_e6e7 - z_e6e7 <= 0
c_e6e7 - y_n0n3 <= 0
c_e6e7 - z_e6e7 - y_n0n3 >= -1
pos_e7 - pos_e6 + 50 z_e6e7 <= 51.01
pos_e7 - pos_e6 - 50 z_e6e7 >= -49.01
pos_e6 <= 10
pos_e7 <= 10
c_e6e5 - z_e6e5 <= 0
c_e6e5 - y_n0n5 <= 0
c_e6e5 - z_e6e5 - y_n0n5 >= -1
pos_e5 - pos_e6 + 50 z_e6e5 <= 51.01
pos_e5 - pos_e6 - 50 z_e6e5 >= -49.01
pos_e6 <= 10
pos_e5 <= 10
pos_e6 - pos_e7 + 50 z_e7e6 <= 51.01
pos_e6 - pos_e7 - 50 z_e7e6 >= -49.01
pos_e7 <= 10
pos_e6 <= 10
c_e7e5 - z_e7e5 <= 0
c_e7e5 - y_n3n5 <= 0
c_e7e5 - z_e7e5 - y_n3n5 >= -1
pos_e5 - pos_e7 + 50 z_e7e5 <= 51.01
pos_e5 - pos_e7 - 50 z_e7e5 >= -49.01
pos_e7 <= 10
pos_e5 <= 10
pos_e6 - pos_e5 + 50 z_e5e6 <= 51.01
pos_e6 - pos_e5 - 50 z_e5e6 >= -49.01
pos_e5 <= 10
pos_e6 <= 10
pos_e7 - pos_e5 + 50 z_e5e7 <= 51.01
pos_e7 - pos_e5 - 50 z_e5e7 >= -49.01
pos_e5 <= 10
pos_e7 <= 10
c_e3e4 - z_e3e4 <= 0
c_e3e4 - y_n0n5 <= 0
c_e3e4 - z_e3e4 - y_n0n5 >= -1
pos_e4 - pos_e3 + 50 z_e3e4 <= 51.01
pos_e4 - pos_e3 - 50 z_e3e4 >= -49.01
pos_e3 <= 10
pos_e4 <= 10
pos_e3 - pos_e4 + 50 z_e4e3 <= 51.01
pos_e3 - pos_e4 - 50 z_e4e3 >= -49.01
pos_e4 <= 10
pos_e3 <= 10
c_e8e9 - z_e8e9 <= 0
c_e8e9 - y_n3n4 <= 0
c_e8e9 - z_e8e9 - y_n3n4 >= -1
pos_e9 - pos_e8 + 50 z_e8e9 <= 51.01
pos_e9 - pos_e8 - 50 z_e8e9 >= -49.01
pos_e8 <= 10
pos_e9 <= 10
pos_e8 - pos_e9 + 50 z_e9e8 <= 51.01
pos_e8 - pos_e9 - 50 z_e9e8 >= -49.01
pos_e9 <= 10
pos_e8 <= 10
Binaries
  x_e2e3 x_e2e6 x_e2e0 x_e2e1 x_e2e7 x_e2e8 x_e2e9 x_e2e4 x_e2e5 x_e3e6 x_e3e0 x_e3e1 x_e3e7 x_e3e8 x_e3e9 x_e3e4 x_e3e5 x_e6e0 x_e6e1 x_e6e7 x_e6e8 x_e6e9 x_e6e4 x_e6e5 x_e0e1 x_e0e7 x_e0e8 x_e0e9 x_e0e4 x_e0e5 x_e1e7 x_e1e8 x_e1e9 x_e1e4 x_e1e5 x_e7e8 x_e7e9 x_e7e4 x_e7e5 x_e8e9 x_e8e4 x_e8e5 x_e9e4 x_e9e5 x_e4e5 y_n0n1 y_n0n2 y_n0n3 y_n0n4 y_n0n5 y_n0n6 y_n0n7 y_n0n8 y_n0n9 y_n1n2 y_n1n3 y_n1n4 y_n1n5 y_n1n6 y_n1n7 y_n1n8 y_n1n9 y_n2n3 y_n2n4 y_n2n5 y_n2n6 y_n2n7 y_n2n8 y_n2n9 y_n3n4 y_n3n5 y_n3n6 y_n3n7 y_n3n8 y_n3n9 y_n4n5 y_n4n6 y_n4n7 y_n4n8 y_n4n9 y_n5n6 y_n5n7 y_n5n8 y_n5n9 y_n6n7 y_n6n8 y_n6n9 y_n7n8 y_n7n9 y_n8n9 c_e2e3 z_e2e3 c_e2e6 z_e2e6 c_e3e2 z_e3e2 c_e3e6 z_e3e6 c_e6e2 z_e6e2 c_e6e3 z_e6e3 c_e7e8 z_e7e8 c_e8e7 z_e8e7 c_e4e5 z_e4e5 c_e5e4 z_e5e4 c_e2e0 z_e2e0 c_e2e1 z_e2e1 c_e0e2 z_e0e2 c_e0e1 z_e0e1 c_e1e2 z_e1e2 c_e1e0 z_e1e0 c_e6e7 z_e6e7 c_e6e5 z_e6e5 c_e7e6 z_e7e6 c_e7e5 z_e7e5 c_e5e6 z_e5e6 c_e5e7 z_e5e7 c_e3e4 z_e3e4 c_e4e3 z_e4e3 c_e8e9 z_e8e9 c_e9e8 z_e9e8
End
